p cnf 91 377
10 11 12 -27 -28 57 0
12 13 -31 -73 78 79 0
2 3 -32 56 -62 0
3 19 23 -51 -68 0
-8 42 45 -60 83 0
10 11 12 -27 -28 0
10 20 69 -72 88 0
10 21 22 -77 88 0
10 -21 22 -77 88 0
12 13 -31 -73 -79 0
-16 -19 -51 -89 91 0
-16 -51 -68 -89 -91 0
19 23 39 54 64 0
40 -43 45 46 -87 0
10 22 -69 -77 88 0
1 2 24 -62 0
1 2 -32 -62 0
-2 -5 37 74 0
-3 4 -23 67 0
-3 4 -50 51 0
-3 13 -50 51 0
-3 13 -50 -68 0
-3 -19 67 91 0
-3 -23 67 91 0
-3 -23 -89 91 0
-3 50 66 67 0
-3 50 66 89 0
4 19 51 -91 0
4 49 67 68 0
4 -50 -68 -91 0
4 -61 -78 84 0
-4 -63 78 82 0
-6 -35 36 37 0
-6 -65 74 82 0
7 45 46 60 0
8 9 -48 55 0
10 21 22 -77 0
-11 -14 -15 76 0
-15 29 -31 57 0
-16 -49 -50 -91 0
-17 -18 -23 -40 0
-18 -19 -38 -39 0
20 41 71 -72 0
20 53 -54 71 0
-20 -21 70 -88 0
-20 -22 41 -53 0
23 25 33 56 0
24 -35 56 61 0
-30 -31 57 58 0
-31 58 -76 -80 0
-35 -52 -74 82 0
-38 -41 53 71 0
49 85 -86 91 0
52 62 -63 82 0
1 42 -60 -87 0
-3 -50 66 89 0
-8 10 60 88 0
-8 -39 46 -60 0
11 26 -27 34 0
12 -14 57 78 0
-14 58 -73 79 0
-16 68 -89 -91 0
17 19 23 40 0
-18 -38 -54 81 0
19 23 -30 -80 0
19 23 60 69 0
19 23 -74 76 0
25 30 33 36 0
-25 -27 -28 34 0
29 30 57 58 0
29 -31 58 -73 0
-37 -63 78 -84 0
45 55 60 -87 0
1 27 -34 0
1 -42 -83 0
-1 -3 8 0
-1 -3 50 0
-1 -56 -59 0
3 51 -86 0
-3 -19 -89 0
-3 -68 -89 0
4 16 -67 0
4 -23 79 0
4 61 63 0
-4 -23 -84 0
5 63 -84 0
6 -36 -37 0
7 40 -83 0
7 42 -83 0
7 45 55 0
7 48 55 0
-7 -8 -45 0
8 9 55 0
8 -42 83 0
8 -46 64 0
-8 38 -72 0
-8 41 -55 0
-8 -45 -48 0
-8 -83 87 0
-8 -83 -88 0
-9 -40 43 0
10 11 57 0
10 -27 -56 0
-10 26 28 0
-10 27 28 0
-10 27 -34 0
11 14 -15 0
11 15 -80 0
11 -33 -76 0
-12 78 -79 0
13 49 58 0
13 49 67 0
13 51 67 0
13 67 -90 0
-13 68 -91 0
14 78 -79 0
15 -31 -80 0
16 23 27 0
-16 -19 67 0
-16 -50 91 0
-16 67 -68 0
17 22 -77 0
17 39 70 0
17 44 77 0
-17 22 71 0
-17 44 -77 0
18 21 -72 0
18 39 42 0
18 64 -72 0
-18 -19 -47 0
19 27 28 0
19 28 59 0
19 -36 74 0
19 41 48 0
-19 20 -69 0
-19 -24 -26 0
-19 25 80 0
-19 -34 -56 0
-19 -81 -85 0
-20 69 -88 0
21 -72 88 0
22 -44 71 0
-22 53 -70 0
-22 53 -88 0
23 -33 -65 0
23 51 81 0
-23 -24 -59 0
-23 -26 31 0
-23 -51 -81 0
-23 -86 -89 0
24 35 36 0
-24 -32 -35 0
-25 29 -36 0
-25 29 -80 0
-25 33 37 0
-25 -76 -80 0
26 -27 -31 0
26 28 31 0
26 -33 -34 0
-29 -30 -37 0
-30 -33 -36 0
32 34 61 0
32 59 -61 0
-32 -56 -61 0
-33 -35 -61 0
36 -63 -78 0
-37 63 -74 0
38 47 -54 0
38 -47 64 0
38 70 72 0
-38 41 70 0
-39 -40 -43 0
46 -47 -64 0
46 -64 -70 0
46 70 -87 0
-49 -50 90 0
51 81 85 0
51 -81 -85 0
51 85 91 0
52 78 -84 0
57 76 80 0
58 -76 -80 0
58 -78 -79 0
-61 65 82 0
66 -67 86 0
66 -86 90 0
-66 86 -90 0
68 -81 90 0
-85 90 -91 0
2 3 56 -62 0
4 -63 78 84 0
1 21 0
1 27 0
1 60 0
1 69 0
-1 -2 0
-1 8 0
-1 24 0
-1 32 0
-1 50 0
-1 69 0
-1 -83 0
2 5 0
2 6 0
-2 35 0
-2 61 0
-2 -65 0
3 49 0
3 -50 0
3 59 0
3 61 0
-3 8 0
-3 13 0
-3 -19 0
-3 89 0
4 25 0
4 33 0
4 -47 0
4 -52 0
4 -82 0
4 89 0
-4 -5 0
-4 -61 0
-4 70 0
5 -36 0
5 -52 0
5 -62 0
5 78 0
5 -78 0
5 -82 0
-5 -6 0
-5 52 0
-5 62 0
-5 65 0
-5 84 0
6 35 0
6 -62 0
6 63 0
6 -82 0
-6 61 0
7 47 0
7 -48 0
7 50 0
7 -55 0
7 64 0
7 -83 0
7 86 0
-7 -19 0
-7 43 0
-7 -46 0
-7 87 0
8 9 0
8 -10 0
8 -42 0
8 -46 0
8 -48 0
8 -50 0
8 64 0
8 -88 0
-8 -71 0
-8 -88 0
9 40 0
9 -43 0
9 45 0
9 -47 0
-9 -45 0
-9 -46 0
-9 64 0
10 39 0
10 -57 0
10 -60 0
10 -72 0
-10 -11 0
-10 -12 0
-10 -26 0
-10 59 0
-10 -59 0
-10 -83 0
11 -12 0
11 13 0
11 -19 0
-11 31 0
-11 -57 0
-11 80 0
12 26 0
12 -84 0
-12 -13 0
-12 31 0
-12 57 0
-12 -57 0
-12 73 0
-12 79 0
-12 -90 0
13 57 0
13 58 0
13 84 0
-13 -31 0
-13 -49 0
-13 86 0
14 30 0
14 31 0
14 -57 0
14 -58 0
14 63 0
14 73 0
14 -78 0
14 79 0
-14 -29 0
-14 73 0
15 25 0
15 31 0
15 -31 0
15 -57 0
15 -58 0
-15 -30 0
-15 80 0
16 49 0
16 50 0
16 -68 0
-16 -23 0
17 -71 0
17 -72 0
-17 -72 0
-17 77 0
18 41 0
18 54 0
18 69 0
18 -71 0
18 -72 0
-18 -55 0
-18 -60 0
-18 -64 0
-18 -69 0
-18 -86 0
19 21 0
19 27 0
19 42 0
19 47 0
19 56 0
19 59 0
19 -65 0
19 -67 0
19 68 0
19 75 0
19 -76 0
19 81 0
-19 -28 0
-19 31 0
-19 36 0
-19 37 0
-19 -41 0
-19 -43 0
-19 -53 0
-19 -54 0
-19 -59 0
-19 -60 0
-19 79 0
-19 84 0
-19 85 0
-19 86 0
20 -77 0
20 -88 0
-20 72 0
-20 77 0
21 -88 0
-21 42 0
-21 -72 0
22 41 0
22 -41 0
22 -53 0
22 72 0
-22 -41 0
-22 55 0
-22 70 0
-22 -71 0
23 25 0
23 27 0
